(set-logic QF_S)
(declare-const x String)
(assert (str.in.re x (re.inter (re.* (re.union (re.range "\u{09}" "\u{0d}") (re.range "\u{20}" "\u{20}") (re.range "\u{85}" "\u{85}") (re.range "\u{a0}" "\u{a0}")) )  (re.++ (re.* (re.union (re.range "\u{09}" "\u{0d}") (re.range "\u{20}" "\u{20}") (re.range "\u{85}" "\u{85}") (re.range "\u{a0}" "\u{a0}")) ) (re.++  (re.++ (re.opt  (str.to.re "\u{2d}") )  (re.union  (re.union (str.to_re "") (re.union  (re.++ (re.range "\u{30}" "\u{39}")  (str.to_re "")) (re.union  (re.++ (re.range "\u{30}" "\u{39}")   (re.++ (re.range "\u{30}" "\u{39}")  (str.to_re ""))) (re.union  (re.++ (re.range "\u{30}" "\u{39}")   (re.++ (re.range "\u{30}" "\u{39}")   (re.++ (re.range "\u{30}" "\u{39}")  (str.to_re "")))) (re.union  (re.++ (re.range "\u{30}" "\u{39}")   (re.++ (re.range "\u{30}" "\u{39}")   (re.++ (re.range "\u{30}" "\u{39}")   (re.++ (re.range "\u{30}" "\u{39}")  (str.to_re ""))))) (re.union  (re.++ (re.range "\u{30}" "\u{39}")   (re.++ (re.range "\u{30}" "\u{39}")   (re.++ (re.range "\u{30}" "\u{39}")   (re.++ (re.range "\u{30}" "\u{39}")   (re.++ (re.range "\u{30}" "\u{39}")  (str.to_re "")))))) (re.union  (re.++ (re.range "\u{30}" "\u{39}")   (re.++ (re.range "\u{30}" "\u{39}")   (re.++ (re.range "\u{30}" "\u{39}")   (re.++ (re.range "\u{30}" "\u{39}")   (re.++ (re.range "\u{30}" "\u{39}")   (re.++ (re.range "\u{30}" "\u{39}")  (str.to_re "")))))))  (re.++ (re.range "\u{30}" "\u{39}")   (re.++ (re.range "\u{30}" "\u{39}")   (re.++ (re.range "\u{30}" "\u{39}")   (re.++ (re.range "\u{30}" "\u{39}")   (re.++ (re.range "\u{30}" "\u{39}")   (re.++ (re.range "\u{30}" "\u{39}")   (re.++ (re.range "\u{30}" "\u{39}")  (str.to_re ""))))))))))))))) (re.union  (re.++  (str.to.re "\u{31}") (re.++  (str.to.re "\u{30}") (re.++ (re.range "\u{30}" "\u{35}")  (re.union (str.to_re "") (re.union  (re.++ (re.range "\u{30}" "\u{39}")  (str.to_re "")) (re.union  (re.++ (re.range "\u{30}" "\u{39}")   (re.++ (re.range "\u{30}" "\u{39}")  (str.to_re ""))) (re.union  (re.++ (re.range "\u{30}" "\u{39}")   (re.++ (re.range "\u{30}" "\u{39}")   (re.++ (re.range "\u{30}" "\u{39}")  (str.to_re "")))) (re.union  (re.++ (re.range "\u{30}" "\u{39}")   (re.++ (re.range "\u{30}" "\u{39}")   (re.++ (re.range "\u{30}" "\u{39}")   (re.++ (re.range "\u{30}" "\u{39}")  (str.to_re "")))))  (re.++ (re.range "\u{30}" "\u{39}")   (re.++ (re.range "\u{30}" "\u{39}")   (re.++ (re.range "\u{30}" "\u{39}")   (re.++ (re.range "\u{30}" "\u{39}")   (re.++ (re.range "\u{30}" "\u{39}")  (str.to_re "")))))))))))))) (re.union  (re.++  (str.to.re "\u{31}") (re.++  (str.to.re "\u{30}") (re.++  (str.to.re "\u{36}") (re.++ (re.range "\u{30}" "\u{36}")  (re.union (str.to_re "") (re.union  (re.++ (re.range "\u{30}" "\u{39}")  (str.to_re "")) (re.union  (re.++ (re.range "\u{30}" "\u{39}")   (re.++ (re.range "\u{30}" "\u{39}")  (str.to_re ""))) (re.union  (re.++ (re.range "\u{30}" "\u{39}")   (re.++ (re.range "\u{30}" "\u{39}")   (re.++ (re.range "\u{30}" "\u{39}")  (str.to_re ""))))  (re.++ (re.range "\u{30}" "\u{39}")   (re.++ (re.range "\u{30}" "\u{39}")   (re.++ (re.range "\u{30}" "\u{39}")   (re.++ (re.range "\u{30}" "\u{39}")  (str.to_re ""))))))))))))) (re.union  (re.++  (str.to.re "\u{31}") (re.++  (str.to.re "\u{30}") (re.++  (str.to.re "\u{36}") (re.++  (str.to.re "\u{37}") (re.++ (re.range "\u{30}" "\u{34}")  (re.union (str.to_re "") (re.union  (re.++ (re.range "\u{30}" "\u{39}")  (str.to_re "")) (re.union  (re.++ (re.range "\u{30}" "\u{39}")   (re.++ (re.range "\u{30}" "\u{39}")  (str.to_re "")))  (re.++ (re.range "\u{30}" "\u{39}")   (re.++ (re.range "\u{30}" "\u{39}")   (re.++ (re.range "\u{30}" "\u{39}")  (str.to_re "")))))))))))) (re.union  (re.++  (str.to.re "\u{31}") (re.++  (str.to.re "\u{30}") (re.++  (str.to.re "\u{36}") (re.++  (str.to.re "\u{37}") (re.++  (str.to.re "\u{35}") (re.++ (re.range "\u{30}" "\u{31}")  (re.union (str.to_re "") (re.union  (re.++ (re.range "\u{30}" "\u{39}")  (str.to_re ""))  (re.++ (re.range "\u{30}" "\u{39}")   (re.++ (re.range "\u{30}" "\u{39}")  (str.to_re "")))))))))))  (re.++ (re.opt  (re.++  (re.union  (re.union (str.to_re "") (re.union  (re.++ (re.range "\u{30}" "\u{39}")  (str.to_re "")) (re.union  (re.++ (re.range "\u{30}" "\u{39}")   (re.++ (re.range "\u{30}" "\u{39}")  (str.to_re ""))) (re.union  (re.++ (re.range "\u{30}" "\u{39}")   (re.++ (re.range "\u{30}" "\u{39}")   (re.++ (re.range "\u{30}" "\u{39}")  (str.to_re "")))) (re.union  (re.++ (re.range "\u{30}" "\u{39}")   (re.++ (re.range "\u{30}" "\u{39}")   (re.++ (re.range "\u{30}" "\u{39}")   (re.++ (re.range "\u{30}" "\u{39}")  (str.to_re ""))))) (re.union  (re.++ (re.range "\u{30}" "\u{39}")   (re.++ (re.range "\u{30}" "\u{39}")   (re.++ (re.range "\u{30}" "\u{39}")   (re.++ (re.range "\u{30}" "\u{39}")   (re.++ (re.range "\u{30}" "\u{39}")  (str.to_re "")))))) (re.union  (re.++ (re.range "\u{30}" "\u{39}")   (re.++ (re.range "\u{30}" "\u{39}")   (re.++ (re.range "\u{30}" "\u{39}")   (re.++ (re.range "\u{30}" "\u{39}")   (re.++ (re.range "\u{30}" "\u{39}")   (re.++ (re.range "\u{30}" "\u{39}")  (str.to_re "")))))))  (re.++ (re.range "\u{30}" "\u{39}")   (re.++ (re.range "\u{30}" "\u{39}")   (re.++ (re.range "\u{30}" "\u{39}")   (re.++ (re.range "\u{30}" "\u{39}")   (re.++ (re.range "\u{30}" "\u{39}")   (re.++ (re.range "\u{30}" "\u{39}")   (re.++ (re.range "\u{30}" "\u{39}")  (str.to_re ""))))))))))))))) (re.union  (re.++  (str.to.re "\u{31}") (re.++  (str.to.re "\u{30}") (re.++ (re.range "\u{30}" "\u{35}")  (re.union (str.to_re "") (re.union  (re.++ (re.range "\u{30}" "\u{39}")  (str.to_re "")) (re.union  (re.++ (re.range "\u{30}" "\u{39}")   (re.++ (re.range "\u{30}" "\u{39}")  (str.to_re ""))) (re.union  (re.++ (re.range "\u{30}" "\u{39}")   (re.++ (re.range "\u{30}" "\u{39}")   (re.++ (re.range "\u{30}" "\u{39}")  (str.to_re "")))) (re.union  (re.++ (re.range "\u{30}" "\u{39}")   (re.++ (re.range "\u{30}" "\u{39}")   (re.++ (re.range "\u{30}" "\u{39}")   (re.++ (re.range "\u{30}" "\u{39}")  (str.to_re "")))))  (re.++ (re.range "\u{30}" "\u{39}")   (re.++ (re.range "\u{30}" "\u{39}")   (re.++ (re.range "\u{30}" "\u{39}")   (re.++ (re.range "\u{30}" "\u{39}")   (re.++ (re.range "\u{30}" "\u{39}")  (str.to_re "")))))))))))))) (re.union  (re.++  (str.to.re "\u{31}") (re.++  (str.to.re "\u{30}") (re.++  (str.to.re "\u{36}") (re.++ (re.range "\u{30}" "\u{36}")  (re.union (str.to_re "") (re.union  (re.++ (re.range "\u{30}" "\u{39}")  (str.to_re "")) (re.union  (re.++ (re.range "\u{30}" "\u{39}")   (re.++ (re.range "\u{30}" "\u{39}")  (str.to_re ""))) (re.union  (re.++ (re.range "\u{30}" "\u{39}")   (re.++ (re.range "\u{30}" "\u{39}")   (re.++ (re.range "\u{30}" "\u{39}")  (str.to_re ""))))  (re.++ (re.range "\u{30}" "\u{39}")   (re.++ (re.range "\u{30}" "\u{39}")   (re.++ (re.range "\u{30}" "\u{39}")   (re.++ (re.range "\u{30}" "\u{39}")  (str.to_re ""))))))))))))) (re.union  (re.++  (str.to.re "\u{31}") (re.++  (str.to.re "\u{30}") (re.++  (str.to.re "\u{36}") (re.++  (str.to.re "\u{37}") (re.++ (re.range "\u{30}" "\u{34}")  (re.union (str.to_re "") (re.union  (re.++ (re.range "\u{30}" "\u{39}")  (str.to_re "")) (re.union  (re.++ (re.range "\u{30}" "\u{39}")   (re.++ (re.range "\u{30}" "\u{39}")  (str.to_re "")))  (re.++ (re.range "\u{30}" "\u{39}")   (re.++ (re.range "\u{30}" "\u{39}")   (re.++ (re.range "\u{30}" "\u{39}")  (str.to_re ""))))))))))))  (re.++  (str.to.re "\u{31}") (re.++  (str.to.re "\u{30}") (re.++  (str.to.re "\u{36}") (re.++  (str.to.re "\u{37}") (re.++  (str.to.re "\u{35}") (re.++ (re.range "\u{30}" "\u{31}")  (re.union (str.to_re "") (re.union  (re.++ (re.range "\u{30}" "\u{39}")  (str.to_re ""))  (re.++ (re.range "\u{30}" "\u{39}")   (re.++ (re.range "\u{30}" "\u{39}")  (str.to_re "")))))))))))))))  (str.to.re "\u{2e}")) ) (re.++  (re.union  (re.++ (re.opt (re.range "\u{30}" "\u{31}") ) (re.range "\u{30}" "\u{39}"))  (re.++  (str.to.re "\u{32}") (re.range "\u{30}" "\u{33}"))) (re.++  (str.to.re "\u{3a}") (re.++ (re.opt (re.range "\u{30}" "\u{35}") ) (re.++ (re.range "\u{30}" "\u{39}") (re.opt  (re.++  (str.to.re "\u{3a}") (re.++ (re.opt (re.range "\u{30}" "\u{35}") ) (re.++ (re.range "\u{30}" "\u{39}") (re.opt  (re.++  (str.to.re "\u{2e}")  (re.union  (re.range "\u{30}" "\u{39}") (re.union  (re.++ (re.range "\u{30}" "\u{39}")   (re.range "\u{30}" "\u{39}")) (re.union  (re.++ (re.range "\u{30}" "\u{39}")   (re.++ (re.range "\u{30}" "\u{39}")   (re.range "\u{30}" "\u{39}"))) (re.union  (re.++ (re.range "\u{30}" "\u{39}")   (re.++ (re.range "\u{30}" "\u{39}")   (re.++ (re.range "\u{30}" "\u{39}")   (re.range "\u{30}" "\u{39}")))) (re.union  (re.++ (re.range "\u{30}" "\u{39}")   (re.++ (re.range "\u{30}" "\u{39}")   (re.++ (re.range "\u{30}" "\u{39}")   (re.++ (re.range "\u{30}" "\u{39}")   (re.range "\u{30}" "\u{39}"))))) (re.union  (re.++ (re.range "\u{30}" "\u{39}")   (re.++ (re.range "\u{30}" "\u{39}")   (re.++ (re.range "\u{30}" "\u{39}")   (re.++ (re.range "\u{30}" "\u{39}")   (re.++ (re.range "\u{30}" "\u{39}")   (re.range "\u{30}" "\u{39}"))))))  (re.++ (re.range "\u{30}" "\u{39}")   (re.++ (re.range "\u{30}" "\u{39}")   (re.++ (re.range "\u{30}" "\u{39}")   (re.++ (re.range "\u{30}" "\u{39}")   (re.++ (re.range "\u{30}" "\u{39}")   (re.++ (re.range "\u{30}" "\u{39}")   (re.range "\u{30}" "\u{39}")))))))))))))) )))) )))))))))))) (re.* (re.union (re.range "\u{09}" "\u{0d}") (re.range "\u{20}" "\u{20}") (re.range "\u{85}" "\u{85}") (re.range "\u{a0}" "\u{a0}")) ))) (re.* (re.union (re.range "\u{09}" "\u{0d}") (re.range "\u{20}" "\u{20}") (re.range "\u{85}" "\u{85}") (re.range "\u{a0}" "\u{a0}")) ) )))
(check-sat)
(get-model)